Version identifier: 22.1.1.0 | 2022-11-28 | 9160aff4d
CPXPARAM_ClockType                               1
CPXPARAM_Read_DataCheck                          1
CPXPARAM_Threads                                 1
CPXPARAM_TimeLimit                               7200
CPXPARAM_MIP_Tolerances_AbsMIPGap                0
CPXPARAM_MIP_Tolerances_MIPGap                   0
CPXPARAM_MIP_Tolerances_Integrality              0
Tried aggregator 5 times.
MIP Presolve eliminated 12876 rows and 3652 columns.
MIP Presolve modified 658 coefficients.
Aggregator did 1212 substitutions.
Reduced MIP has 4811 rows, 2816 columns, and 15606 nonzeros.
Reduced MIP has 2816 binaries, 0 generals, 0 SOSs, and 0 indicators.
Presolve time = 0.04 sec. (33.75 ticks)
Found incumbent of value 124.000000 after 0.08 sec. (50.23 ticks)
Probing time = 0.00 sec. (2.80 ticks)
Tried aggregator 1 time.
Detecting symmetries...
Reduced MIP has 4811 rows, 2816 columns, and 15606 nonzeros.
Reduced MIP has 2816 binaries, 0 generals, 0 SOSs, and 0 indicators.
Presolve time = 0.01 sec. (11.16 ticks)
Probing time = 0.01 sec. (2.71 ticks)
Clique table members: 8535.
MIP emphasis: balance optimality and feasibility.
MIP search method: dynamic search.
Parallel mode: none, using 1 thread.
Root relaxation solution time = 0.10 sec. (79.08 ticks)

        Nodes                                         Cuts/
   Node  Left     Objective  IInf  Best Integer    Best Bound    ItCnt     Gap

*     0+    0                          124.0000     3760.0000              --- 
      0     0     1128.0000   625      124.0000     1128.0000     1194  809.68%
      0     0     1128.0000   493      124.0000      Cuts: 23     1260  809.68%
      0     0     1128.0000   458      124.0000      Cuts: 67     1624  809.68%
      0     0     1128.0000   422      124.0000  ZeroHalf: 68     1682  809.68%
*     0+    0                         1118.0000     1128.0000             0.89%
      0     0     1128.0000   480     1118.0000  ZeroHalf: 36     1783    0.89%
*     0+    0                         1122.0000     1128.0000             0.53%
*     0+    0                         1128.0000     1128.0000             0.00%
      0     0        cutoff           1128.0000     1128.0000     1783    0.00%
      0     0        cutoff           1128.0000     1128.0000     1783    0.00%
Elapsed time = 0.92 sec. (646.22 ticks, tree = 0.01 MB, solutions = 4)

Clique cuts applied:  5
Implied bound cuts applied:  2
Zero-half cuts applied:  14

Root node processing (before b&c):
  Real time             =    0.92 sec. (646.68 ticks)
Sequential b&c:
  Real time             =    0.00 sec. (0.00 ticks)
                          ------------
Total (root+branch&cut) =    0.92 sec. (646.68 ticks)
Solution is feasible.

---------------------
@@@ MIP_optimal
>>> Benchmark mc2024_track1_184.cnf k 5 OPT 1128 TimeCost 3.2248430252075195 TimeSolve 0.9510676860809326 TimeRead 0.005886077880859375 TimeTrans 2.2678892612457275
